\ LP format - for model browsing. Use MPS format to capture full model detail.
Minimize
  - 5 x_0 - x_1 - 4 x_2 - 4 x_3 - 4 x_4 - 2 x_5 - 4 x_6 - 3 x_7 - 5 x_8
   - x_9 - x_10 - 5 x_11 - 3 x_12 - 2 x_13 - x_14 - 2 x_15 - 2 x_16 - x_17
   - 2 x_18 - 5 x_19 + [ - 145 x_0 ^2 - 26 x_1 ^2 - 116 x_2 ^2 - 60 x_3 ^2
   - 100 x_4 ^2 - 50 x_5 ^2 - 40 x_6 ^2 - 84 x_7 ^2 - 65 x_8 ^2 - 27 x_9 ^2
   - 29 x_10 ^2 - 145 x_11 ^2 - 87 x_12 ^2 - 48 x_13 ^2 - 17 x_14 ^2
   - 20 x_15 ^2 - 22 x_16 ^2 - 19 x_17 ^2 - 20 x_18 ^2 - 100 x_19 ^2 ] / 2 
Subject To
 c1_0: 5 x_0 + 4 x_1 + 4 x_2 + 3 x_3 + 5 x_4 + 3 x_5 + x_6 + x_7 + 5 x_8
   + x_9 + 5 x_10 + 2 x_11 + 5 x_12 + 2 x_13 + 3 x_14 + 3 x_15 + x_16
   + 2 x_17 + 2 x_18 + 2 x_19 + [ 52.5 x_0 ^2 + 46 x_1 ^2 + 52 x_2 ^2
   + 27 x_3 ^2 + 45 x_4 ^2 + 43.5 x_5 ^2 + 9 x_6 ^2 + 6 x_7 ^2 + 75 x_8 ^2
   + 6.5 x_9 ^2 + 55 x_10 ^2 + 24 x_11 ^2 + 25 x_12 ^2 + 14 x_13 ^2
   + 19.5 x_14 ^2 + 34.5 x_15 ^2 + 10.5 x_16 ^2 + 23 x_17 ^2 + 23 x_18 ^2
   + 21 x_19 ^2 ] <= 18
 c1_1: 2 x_0 + 4 x_1 + 4 x_2 + 3 x_3 + 4 x_4 + x_5 + 4 x_6 + 5 x_7 + 2 x_8
   + 3 x_9 + 5 x_10 + 4 x_11 + 5 x_12 + 5 x_13 + 5 x_14 + 4 x_15 + 5 x_16
   + 5 x_17 + 5 x_18 + x_19 + [ 26 x_0 ^2 + 48 x_1 ^2 + 52 x_2 ^2
   + 43.5 x_3 ^2 + 22 x_4 ^2 + 9 x_5 ^2 + 20 x_6 ^2 + 35 x_7 ^2 + 16 x_8 ^2
   + 34.5 x_9 ^2 + 42.5 x_10 ^2 + 50 x_11 ^2 + 47.5 x_12 ^2 + 70 x_13 ^2
   + 45 x_14 ^2 + 50 x_15 ^2 + 52.5 x_16 ^2 + 40 x_17 ^2 + 62.5 x_18 ^2
   + 5.5 x_19 ^2 ] <= 23
 c1_2: 5 x_0 + 4 x_1 + 3 x_2 + x_3 + 2 x_4 + 2 x_5 + 4 x_6 + x_7 + x_8
   + 2 x_9 + 3 x_10 + 5 x_11 + 3 x_12 + x_13 + 4 x_14 + 3 x_15 + 3 x_16
   + x_17 + 2 x_18 + x_19 + [ 55 x_0 ^2 + 26 x_1 ^2 + 42 x_2 ^2
   + 12.5 x_3 ^2 + 13 x_4 ^2 + 20 x_5 ^2 + 44 x_6 ^2 + 8 x_7 ^2
   + 6.5 x_8 ^2 + 15 x_9 ^2 + 31.5 x_10 ^2 + 25 x_11 ^2 + 31.5 x_12 ^2
   + 9 x_13 ^2 + 60 x_14 ^2 + 30 x_15 ^2 + 31.5 x_16 ^2 + 7.5 x_17 ^2
   + 25 x_18 ^2 + 9 x_19 ^2 ] <= 15
 c1_3: 3 x_0 + 3 x_1 + 4 x_2 + 3 x_3 + 4 x_4 + 3 x_5 + 2 x_6 + 3 x_7
   + 4 x_8 + 4 x_9 + 4 x_10 + 3 x_11 + 4 x_12 + 5 x_13 + 2 x_14 + 3 x_15
   + 4 x_16 + 2 x_17 + 3 x_18 + 2 x_19 + [ 18 x_0 ^2 + 43.5 x_1 ^2
   + 58 x_2 ^2 + 36 x_3 ^2 + 60 x_4 ^2 + 19.5 x_5 ^2 + 13 x_6 ^2
   + 25.5 x_7 ^2 + 38 x_8 ^2 + 38 x_9 ^2 + 38 x_10 ^2 + 19.5 x_11 ^2
   + 48 x_12 ^2 + 70 x_13 ^2 + 22 x_14 ^2 + 19.5 x_15 ^2 + 38 x_16 ^2
   + 20 x_17 ^2 + 34.5 x_18 ^2 + 17 x_19 ^2 ] <= 20
 c1_4: 5 x_0 + 3 x_1 + 4 x_2 + x_3 + 4 x_4 + 3 x_5 + 4 x_6 + x_7 + x_8
   + x_9 + 4 x_10 + 3 x_11 + 4 x_12 + x_13 + 5 x_14 + x_15 + x_16 + 3 x_17
   + 4 x_18 + 3 x_19 + [ 42.5 x_0 ^2 + 16.5 x_1 ^2 + 44 x_2 ^2 + 6 x_3 ^2
   + 24 x_4 ^2 + 16.5 x_5 ^2 + 30 x_6 ^2 + 9 x_7 ^2 + 7 x_8 ^2 + 5 x_9 ^2
   + 42 x_10 ^2 + 18 x_11 ^2 + 30 x_12 ^2 + 13 x_13 ^2 + 45 x_14 ^2
   + 5.5 x_15 ^2 + 13.5 x_16 ^2 + 39 x_17 ^2 + 26 x_18 ^2 + 27 x_19 ^2 ]
   <= 13
Bounds
 x_0 <= 1
 x_1 <= 1
 x_2 <= 1
 x_3 <= 1
 x_4 <= 1
 x_5 <= 1
 x_6 <= 1
 x_7 <= 1
 x_8 <= 1
 x_9 <= 1
 x_10 <= 1
 x_11 <= 1
 x_12 <= 1
 x_13 <= 1
 x_14 <= 1
 x_15 <= 1
 x_16 <= 1
 x_17 <= 1
 x_18 <= 1
 x_19 <= 1
End
